sat
(:max-memory         18.01
 :memory             17.92
 :nlsat-propagations 7
 :nlsat-stages       4
 :num-allocs         5243
 :rlimit-count       858
 :time               0.00
 :total-time         0.01)
